CapLotSizing_PM/src/Instancias/TCLSLT/12i18p2m/NBB04.dat
12 18 2
 1
      2165
      2165
    2
     3
     2
     4
     2
     2
     4
     2
     3
     3
     3
     3
   2.5  49.0   788    20 
  3.9  25.5   673    19 
  3.4  45.4   665    25 
  1.7  37.8   759    24 
  3.5  40.4   894    16 
  4.8  25.2   599    17 
  4.5  21.6   932    17 
  2.3  37.5   328    24 
  3.5  10.6    69    16 
  2.3  20.7   721    23 
  2.1  44.6   701    17 
  5.0  26.5   732    18 
  2.4  42.5   276    17 
  2.5  24.6   231    15 
  1.7  50.0   227    23 
  4.7  15.5   538    23 
  1.3  47.3   640    15 
  1.1  23.1   661    19 
  4.7  30.9   494    22 
  3.3  31.4   857    18 
  3.2  13.3   223    24 
  1.8  32.8   510    22 
  2.9  11.3   166    20 
  2.7  15.4   179    20 
   81    18    74   176     5    95    40   103   118    31    21    81 
   54    58    16     7   109    56    35    23    83   164   100     4 
   11   174    40   122   114   171   162   178    46   116   110    87 
   40    35    96    30   157   147   179    38   137   157    70   158 
  119   144    12   157   105    50   150   110   163   144   130    61 
   68   155    91   152    21    25    37    53   168   120   117   129 
  141    96   153   132   169    76   120   152    46    92   147   105 
  162    64   141   156   102   177    80   135    96    25    10   159 
  122    30    78    67   159   116    85   121   101    72   176   120 
   72    12    44   117    10   108   150    98   127   155    49    42 
   81    35    86   146    36   109    23    60    28    64   119     1 
    3   157    79    34    72    62    95   106   102   174   150   110 
   28    73    97   105    38     9   112    48   139   132    70   117 
   85   149    67   161    47   105    71   114    67    35   105    17 
   48    78   152   170   100   129   103    37   144    22   147   178 
   29    38    89    87    60   165    28    94   154   171    53   112 
    8    88   149   169   130     4   144   150    86   116    72    89 
   61   141    31   161    29    60    20   128    83    47    88    83 
