CapLotSizing_PM/src/Instancias/TCLSLT/12i18p2m/NBB04.OUT
 CG ITER, OVMR, OVMRUB =           1   48112.5078125   48112.5039062
 CG ITER, OVMR, OVMRUB =           2   47600.0898438   47600.0898438
 CG ITER, OVMR, OVMRUB =           3   47415.0742188   47600.0898438
 CG ITER, OVMR, OVMRUB =           4   46014.1601562   47600.0898438
 CG ITER, OVMR, OVMRUB =           5   43567.7070312   47600.0898438
 CG ITER, OVMR, OVMRUB =           6   43710.6250000   47600.0898438
 CG ITER, OVMR, OVMRUB =           7   43912.0468750   47600.0898438
 CG ITER, OVMR, OVMRUB =           8   43911.6992188   47600.0898438
 CG ITER, OVMR, OVMRUB =           9   43842.3007812   47600.0898438
 CG ITER, OVMR, OVMRUB =          10   43864.3398438   47600.0898438
 CG ITER, OVMR, OVMRUB =          11   43848.8125000   47600.0898438
 CG ITER, OVMR, OVMRUB =          12   43801.7812500   47600.0898438
 CG ITER, OVMR, OVMRUB =          13   43833.8984375   47600.0898438
 CG ITER, OVMR, OVMRUB =          14   43828.9140625   47600.0898438
 CG ITER, OVMR, OVMRUB =          15   43860.9921875   47600.0898438
 CG ITER, OVMR, OVMRUB =          16   43878.0507812   47600.0898438
 CG ITER, OVMR, OVMRUB =          17   43891.9609375   47600.0898438
 CG ITER, OVMR, OVMRUB =          18   43916.0742188   47600.0898438
 CG ITER, OVMR, OVMRUB =          19   43956.5117188   47600.0898438
 CG ITER, OVMR, OVMRUB =          20   44026.8515625   47600.0898438
 CG ITER, OVMR, OVMRUB =          21   44074.7265625   47600.0898438
 CG ITER, OVMR, OVMRUB =          22   44119.6835938   47600.0898438
 CG ITER, OVMR, OVMRUB =          23   44130.2343750   47600.0898438
 CG ITER, OVMR, OVMRUB =          24   44136.6250000   47600.0898438
 CG ITER, OVMR, OVMRUB =          25   44114.0078125   47600.0898438
 CG ITER, OVMR, OVMRUB =          26   44083.8007812   47600.0898438
 CG ITER, OVMR, OVMRUB =          27   44058.6757812   47600.0898438
 CG ITER, OVMR, OVMRUB =          28   44050.1914062   47600.0898438
 CG ITER, OVMR, OVMRUB =          29   44045.4726562   47600.0898438
 CG ITER, OVMR, OVMRUB =          30   44041.5351562   47600.0898438
 CG ITER, OVMR, OVMRUB =          31   44036.1796875   47600.0898438
 CG ITER, OVMR, OVMRUB =          32   44031.2929688   47600.0898438
 CG ITER, OVMR, OVMRUB =          33   44027.2734375   47600.0898438
 CG ITER, OVMR, OVMRUB =          34   44027.8554688   47600.0898438
 CG ITER, OVMR, OVMRUB =          35   44025.4921875   47600.0898438
 CG ITER, OVMR, OVMRUB =          36   44026.1054688   46656.2226562
 CG ITER, OVMR, OVMRUB =          37   44025.7695312   46656.2226562
 CG ITER, OVMR, OVMRUB =          38   44025.0429688   46656.2226562
 CG ITER, OVMR, OVMRUB =          39   44025.1328125   46656.2226562
 CG ITER, OVMR, OVMRUB =          40   44024.4726562   46656.2226562
 CG ITER, OVMR, OVMRUB =          41   44025.0390625   46656.2226562
 CG ITER, OVMR, OVMRUB =          42   44024.1914062   46656.2226562
 CG ITER, OVMR, OVMRUB =          43   44023.3867188   46656.2226562
 CG ITER, OVMR, OVMRUB =          44   44024.9960938   46656.2226562
 CG ITER, OVMR, OVMRUB =          45   44024.3085938   46656.2226562
 CG ITER, OVMR, OVMRUB =          46   44023.7656250   46656.2226562
 CG ITER, OVMR, OVMRUB =          47   44023.7890625   46656.2226562
 CG ITER, OVMR, OVMRUB =          48   44024.5664062   46656.2226562
 CG ITER, OVMR, OVMRUB =          49   44024.9179688   46656.2226562
 CG ITER, OVMR, OVMRUB =          50   44024.2421875   46656.2226562
 CG ITER, OVMR, OVMRUB =          51   44024.2421875   46656.2226562
OVLB =   44024.2421875 OVLUB =   46656.2226562 TIME =      38.0099983
